c t wmc
c file mc2022_track2_129.cnf
p cnf 120 846
-2 0
-62 0
25 0
-85 0
-50 0
110 0
1 61 46 106 0
-1 61 -46 106 0
1 -61 46 -106 0
-1 -61 -46 -106 0
1 61 18 78 0
-1 61 -18 78 0
1 -61 18 -78 0
-1 -61 -18 -78 0
1 61 8 68 0
-1 61 -8 68 0
1 -61 8 -68 0
-1 -61 -8 -68 0
1 61 39 99 0
-1 61 -39 99 0
1 -61 39 -99 0
-1 -61 -39 -99 0
1 61 48 108 0
-1 61 -48 108 0
1 -61 48 -108 0
-1 -61 -48 -108 0
1 61 21 81 0
-1 61 -21 81 0
1 -61 21 -81 0
-1 -61 -21 -81 0
1 61 41 101 0
-1 61 -41 101 0
1 -61 41 -101 0
-1 -61 -41 -101 0
2 62 25 85 0
-2 62 -25 85 0
2 -62 25 -85 0
-2 -62 -25 -85 0
2 62 3 63 0
-2 62 -3 63 0
2 -62 3 -63 0
-2 -62 -3 -63 0
2 62 50 110 0
-2 62 -50 110 0
2 -62 50 -110 0
-2 -62 -50 -110 0
2 62 8 68 0
-2 62 -8 68 0
2 -62 8 -68 0
-2 -62 -8 -68 0
2 62 28 88 0
-2 62 -28 88 0
2 -62 28 -88 0
-2 -62 -28 -88 0
2 62 42 102 0
-2 62 -42 102 0
2 -62 42 -102 0
-2 -62 -42 -102 0
2 62 16 76 0
-2 62 -16 76 0
2 -62 16 -76 0
-2 -62 -16 -76 0
3 63 26 86 0
-3 63 -26 86 0
3 -63 26 -86 0
-3 -63 -26 -86 0
3 63 22 82 0
-3 63 -22 82 0
3 -63 22 -82 0
-3 -63 -22 -82 0
3 63 5 65 0
-3 63 -5 65 0
3 -63 5 -65 0
-3 -63 -5 -65 0
3 63 4 64 0
-3 63 -4 64 0
3 -63 4 -64 0
-3 -63 -4 -64 0
3 63 52 112 0
-3 63 -52 112 0
3 -63 52 -112 0
-3 -63 -52 -112 0
3 63 56 116 0
-3 63 -56 116 0
3 -63 56 -116 0
-3 -63 -56 -116 0
4 64 58 118 0
-4 64 -58 118 0
4 -64 58 -118 0
-4 -64 -58 -118 0
4 64 55 115 0
-4 64 -55 115 0
4 -64 55 -115 0
-4 -64 -55 -115 0
4 64 52 112 0
-4 64 -52 112 0
4 -64 52 -112 0
-4 -64 -52 -112 0
4 64 5 65 0
-4 64 -5 65 0
4 -64 5 -65 0
-4 -64 -5 -65 0
4 64 5 65 0
-4 64 -5 65 0
4 -64 5 -65 0
-4 -64 -5 -65 0
4 64 40 100 0
-4 64 -40 100 0
4 -64 40 -100 0
-4 -64 -40 -100 0
5 65 8 68 0
-5 65 -8 68 0
5 -65 8 -68 0
-5 -65 -8 -68 0
5 65 27 87 0
-5 65 -27 87 0
5 -65 27 -87 0
-5 -65 -27 -87 0
5 65 21 81 0
-5 65 -21 81 0
5 -65 21 -81 0
-5 -65 -21 -81 0
5 65 44 104 0
-5 65 -44 104 0
5 -65 44 -104 0
-5 -65 -44 -104 0
6 66 10 70 0
-6 66 -10 70 0
6 -66 10 -70 0
-6 -66 -10 -70 0
6 66 47 107 0
-6 66 -47 107 0
6 -66 47 -107 0
-6 -66 -47 -107 0
6 66 43 103 0
-6 66 -43 103 0
6 -66 43 -103 0
-6 -66 -43 -103 0
6 66 26 86 0
-6 66 -26 86 0
6 -66 26 -86 0
-6 -66 -26 -86 0
6 66 38 98 0
-6 66 -38 98 0
6 -66 38 -98 0
-6 -66 -38 -98 0
6 66 58 118 0
-6 66 -58 118 0
6 -66 58 -118 0
-6 -66 -58 -118 0
6 66 12 72 0
-6 66 -12 72 0
6 -66 12 -72 0
-6 -66 -12 -72 0
7 67 29 89 0
-7 67 -29 89 0
7 -67 29 -89 0
-7 -67 -29 -89 0
7 67 25 85 0
-7 67 -25 85 0
7 -67 25 -85 0
-7 -67 -25 -85 0
7 67 15 75 0
-7 67 -15 75 0
7 -67 15 -75 0
-7 -67 -15 -75 0
7 67 35 95 0
-7 67 -35 95 0
7 -67 35 -95 0
-7 -67 -35 -95 0
7 67 35 95 0
-7 67 -35 95 0
7 -67 35 -95 0
-7 -67 -35 -95 0
7 67 24 84 0
-7 67 -24 84 0
7 -67 24 -84 0
-7 -67 -24 -84 0
7 67 31 91 0
-7 67 -31 91 0
7 -67 31 -91 0
-7 -67 -31 -91 0
8 68 49 109 0
-8 68 -49 109 0
8 -68 49 -109 0
-8 -68 -49 -109 0
8 68 16 76 0
-8 68 -16 76 0
8 -68 16 -76 0
-8 -68 -16 -76 0
8 68 43 103 0
-8 68 -43 103 0
8 -68 43 -103 0
-8 -68 -43 -103 0
8 68 42 102 0
-8 68 -42 102 0
8 -68 42 -102 0
-8 -68 -42 -102 0
9 69 18 78 0
-9 69 -18 78 0
9 -69 18 -78 0
-9 -69 -18 -78 0
9 69 29 89 0
-9 69 -29 89 0
9 -69 29 -89 0
-9 -69 -29 -89 0
9 69 57 117 0
-9 69 -57 117 0
9 -69 57 -117 0
-9 -69 -57 -117 0
9 69 12 72 0
-9 69 -12 72 0
9 -69 12 -72 0
-9 -69 -12 -72 0
9 69 32 92 0
-9 69 -32 92 0
9 -69 32 -92 0
-9 -69 -32 -92 0
9 69 46 106 0
-9 69 -46 106 0
9 -69 46 -106 0
-9 -69 -46 -106 0
9 69 32 92 0
-9 69 -32 92 0
9 -69 32 -92 0
-9 -69 -32 -92 0
10 70 46 106 0
-10 70 -46 106 0
10 -70 46 -106 0
-10 -70 -46 -106 0
10 70 12 72 0
-10 70 -12 72 0
10 -70 12 -72 0
-10 -70 -12 -72 0
10 70 52 112 0
-10 70 -52 112 0
10 -70 52 -112 0
-10 -70 -52 -112 0
10 70 47 107 0
-10 70 -47 107 0
10 -70 47 -107 0
-10 -70 -47 -107 0
10 70 59 119 0
-10 70 -59 119 0
10 -70 59 -119 0
-10 -70 -59 -119 0
10 70 59 119 0
-10 70 -59 119 0
10 -70 59 -119 0
-10 -70 -59 -119 0
11 71 31 91 0
-11 71 -31 91 0
11 -71 31 -91 0
-11 -71 -31 -91 0
11 71 57 117 0
-11 71 -57 117 0
11 -71 57 -117 0
-11 -71 -57 -117 0
11 71 33 93 0
-11 71 -33 93 0
11 -71 33 -93 0
-11 -71 -33 -93 0
11 71 59 119 0
-11 71 -59 119 0
11 -71 59 -119 0
-11 -71 -59 -119 0
11 71 24 84 0
-11 71 -24 84 0
11 -71 24 -84 0
-11 -71 -24 -84 0
11 71 28 88 0
-11 71 -28 88 0
11 -71 28 -88 0
-11 -71 -28 -88 0
11 71 26 86 0
-11 71 -26 86 0
11 -71 26 -86 0
-11 -71 -26 -86 0
12 72 13 73 0
-12 72 -13 73 0
12 -72 13 -73 0
-12 -72 -13 -73 0
12 72 14 74 0
-12 72 -14 74 0
12 -72 14 -74 0
-12 -72 -14 -74 0
12 72 20 80 0
-12 72 -20 80 0
12 -72 20 -80 0
-12 -72 -20 -80 0
12 72 19 79 0
-12 72 -19 79 0
12 -72 19 -79 0
-12 -72 -19 -79 0
13 73 25 85 0
-13 73 -25 85 0
13 -73 25 -85 0
-13 -73 -25 -85 0
13 73 58 118 0
-13 73 -58 118 0
13 -73 58 -118 0
-13 -73 -58 -118 0
13 73 42 102 0
-13 73 -42 102 0
13 -73 42 -102 0
-13 -73 -42 -102 0
13 73 24 84 0
-13 73 -24 84 0
13 -73 24 -84 0
-13 -73 -24 -84 0
13 73 55 115 0
-13 73 -55 115 0
13 -73 55 -115 0
-13 -73 -55 -115 0
13 73 27 87 0
-13 73 -27 87 0
13 -73 27 -87 0
-13 -73 -27 -87 0
14 74 34 94 0
-14 74 -34 94 0
14 -74 34 -94 0
-14 -74 -34 -94 0
14 74 54 114 0
-14 74 -54 114 0
14 -74 54 -114 0
-14 -74 -54 -114 0
14 74 49 109 0
-14 74 -49 109 0
14 -74 49 -109 0
-14 -74 -49 -109 0
14 74 44 104 0
-14 74 -44 104 0
14 -74 44 -104 0
-14 -74 -44 -104 0
14 74 40 100 0
-14 74 -40 100 0
14 -74 40 -100 0
-14 -74 -40 -100 0
14 74 48 108 0
-14 74 -48 108 0
14 -74 48 -108 0
-14 -74 -48 -108 0
15 75 21 81 0
-15 75 -21 81 0
15 -75 21 -81 0
-15 -75 -21 -81 0
15 75 26 86 0
-15 75 -26 86 0
15 -75 26 -86 0
-15 -75 -26 -86 0
15 75 27 87 0
-15 75 -27 87 0
15 -75 27 -87 0
-15 -75 -27 -87 0
15 75 17 77 0
-15 75 -17 77 0
15 -75 17 -77 0
-15 -75 -17 -77 0
15 75 25 85 0
-15 75 -25 85 0
15 -75 25 -85 0
-15 -75 -25 -85 0
15 75 29 89 0
-15 75 -29 89 0
15 -75 29 -89 0
-15 -75 -29 -89 0
16 76 45 105 0
-16 76 -45 105 0
16 -76 45 -105 0
-16 -76 -45 -105 0
16 76 17 77 0
-16 76 -17 77 0
16 -76 17 -77 0
-16 -76 -17 -77 0
16 76 29 89 0
-16 76 -29 89 0
16 -76 29 -89 0
-16 -76 -29 -89 0
16 76 57 117 0
-16 76 -57 117 0
16 -76 57 -117 0
-16 -76 -57 -117 0
16 76 37 97 0
-16 76 -37 97 0
16 -76 37 -97 0
-16 -76 -37 -97 0
17 77 46 106 0
-17 77 -46 106 0
17 -77 46 -106 0
-17 -77 -46 -106 0
17 77 51 111 0
-17 77 -51 111 0
17 -77 51 -111 0
-17 -77 -51 -111 0
17 77 57 117 0
-17 77 -57 117 0
17 -77 57 -117 0
-17 -77 -57 -117 0
17 77 35 95 0
-17 77 -35 95 0
17 -77 35 -95 0
-17 -77 -35 -95 0
17 77 28 88 0
-17 77 -28 88 0
17 -77 28 -88 0
-17 -77 -28 -88 0
18 78 38 98 0
-18 78 -38 98 0
18 -78 38 -98 0
-18 -78 -38 -98 0
18 78 36 96 0
-18 78 -36 96 0
18 -78 36 -96 0
-18 -78 -36 -96 0
18 78 49 109 0
-18 78 -49 109 0
18 -78 49 -109 0
-18 -78 -49 -109 0
18 78 40 100 0
-18 78 -40 100 0
18 -78 40 -100 0
-18 -78 -40 -100 0
18 78 51 111 0
-18 78 -51 111 0
18 -78 51 -111 0
-18 -78 -51 -111 0
19 79 22 82 0
-19 79 -22 82 0
19 -79 22 -82 0
-19 -79 -22 -82 0
19 79 37 97 0
-19 79 -37 97 0
19 -79 37 -97 0
-19 -79 -37 -97 0
19 79 41 101 0
-19 79 -41 101 0
19 -79 41 -101 0
-19 -79 -41 -101 0
19 79 36 96 0
-19 79 -36 96 0
19 -79 36 -96 0
-19 -79 -36 -96 0
19 79 46 106 0
-19 79 -46 106 0
19 -79 46 -106 0
-19 -79 -46 -106 0
19 79 60 120 0
-19 79 -60 120 0
19 -79 60 -120 0
-19 -79 -60 -120 0
20 80 34 94 0
-20 80 -34 94 0
20 -80 34 -94 0
-20 -80 -34 -94 0
20 80 22 82 0
-20 80 -22 82 0
20 -80 22 -82 0
-20 -80 -22 -82 0
20 80 33 93 0
-20 80 -33 93 0
20 -80 33 -93 0
-20 -80 -33 -93 0
20 80 60 120 0
-20 80 -60 120 0
20 -80 60 -120 0
-20 -80 -60 -120 0
20 80 28 88 0
-20 80 -28 88 0
20 -80 28 -88 0
-20 -80 -28 -88 0
20 80 58 118 0
-20 80 -58 118 0
20 -80 58 -118 0
-20 -80 -58 -118 0
21 81 37 97 0
-21 81 -37 97 0
21 -81 37 -97 0
-21 -81 -37 -97 0
21 81 56 116 0
-21 81 -56 116 0
21 -81 56 -116 0
-21 -81 -56 -116 0
21 81 28 88 0
-21 81 -28 88 0
21 -81 28 -88 0
-21 -81 -28 -88 0
21 81 52 112 0
-21 81 -52 112 0
21 -81 52 -112 0
-21 -81 -52 -112 0
22 82 33 93 0
-22 82 -33 93 0
22 -82 33 -93 0
-22 -82 -33 -93 0
22 82 57 117 0
-22 82 -57 117 0
22 -82 57 -117 0
-22 -82 -57 -117 0
22 82 60 120 0
-22 82 -60 120 0
22 -82 60 -120 0
-22 -82 -60 -120 0
22 82 23 83 0
-22 82 -23 83 0
22 -82 23 -83 0
-22 -82 -23 -83 0
23 83 50 110 0
-23 83 -50 110 0
23 -83 50 -110 0
-23 -83 -50 -110 0
23 83 55 115 0
-23 83 -55 115 0
23 -83 55 -115 0
-23 -83 -55 -115 0
23 83 48 108 0
-23 83 -48 108 0
23 -83 48 -108 0
-23 -83 -48 -108 0
23 83 53 113 0
-23 83 -53 113 0
23 -83 53 -113 0
-23 -83 -53 -113 0
23 83 54 114 0
-23 83 -54 114 0
23 -83 54 -114 0
-23 -83 -54 -114 0
23 83 56 116 0
-23 83 -56 116 0
23 -83 56 -116 0
-23 -83 -56 -116 0
24 84 33 93 0
-24 84 -33 93 0
24 -84 33 -93 0
-24 -84 -33 -93 0
24 84 55 115 0
-24 84 -55 115 0
24 -84 55 -115 0
-24 -84 -55 -115 0
24 84 39 99 0
-24 84 -39 99 0
24 -84 39 -99 0
-24 -84 -39 -99 0
24 84 50 110 0
-24 84 -50 110 0
24 -84 50 -110 0
-24 -84 -50 -110 0
25 85 31 91 0
-25 85 -31 91 0
25 -85 31 -91 0
-25 -85 -31 -91 0
25 85 50 110 0
-25 85 -50 110 0
25 -85 50 -110 0
-25 -85 -50 -110 0
25 85 47 107 0
-25 85 -47 107 0
25 -85 47 -107 0
-25 -85 -47 -107 0
26 86 54 114 0
-26 86 -54 114 0
26 -86 54 -114 0
-26 -86 -54 -114 0
26 86 36 96 0
-26 86 -36 96 0
26 -86 36 -96 0
-26 -86 -36 -96 0
26 86 42 102 0
-26 86 -42 102 0
26 -86 42 -102 0
-26 -86 -42 -102 0
27 87 48 108 0
-27 87 -48 108 0
27 -87 48 -108 0
-27 -87 -48 -108 0
27 87 43 103 0
-27 87 -43 103 0
27 -87 43 -103 0
-27 -87 -43 -103 0
27 87 56 116 0
-27 87 -56 116 0
27 -87 56 -116 0
-27 -87 -56 -116 0
27 87 53 113 0
-27 87 -53 113 0
27 -87 53 -113 0
-27 -87 -53 -113 0
28 88 35 95 0
-28 88 -35 95 0
28 -88 35 -95 0
-28 -88 -35 -95 0
28 88 30 90 0
-28 88 -30 90 0
28 -88 30 -90 0
-28 -88 -30 -90 0
29 89 30 90 0
-29 89 -30 90 0
29 -89 30 -90 0
-29 -89 -30 -90 0
29 89 43 103 0
-29 89 -43 103 0
29 -89 43 -103 0
-29 -89 -43 -103 0
29 89 55 115 0
-29 89 -55 115 0
29 -89 55 -115 0
-29 -89 -55 -115 0
30 90 47 107 0
-30 90 -47 107 0
30 -90 47 -107 0
-30 -90 -47 -107 0
30 90 42 102 0
-30 90 -42 102 0
30 -90 42 -102 0
-30 -90 -42 -102 0
30 90 38 98 0
-30 90 -38 98 0
30 -90 38 -98 0
-30 -90 -38 -98 0
30 90 41 101 0
-30 90 -41 101 0
30 -90 41 -101 0
-30 -90 -41 -101 0
30 90 51 111 0
-30 90 -51 111 0
30 -90 51 -111 0
-30 -90 -51 -111 0
31 91 57 117 0
-31 91 -57 117 0
31 -91 57 -117 0
-31 -91 -57 -117 0
31 91 60 120 0
-31 91 -60 120 0
31 -91 60 -120 0
-31 -91 -60 -120 0
31 91 58 118 0
-31 91 -58 118 0
31 -91 58 -118 0
-31 -91 -58 -118 0
31 91 34 94 0
-31 91 -34 94 0
31 -91 34 -94 0
-31 -91 -34 -94 0
32 92 50 110 0
-32 92 -50 110 0
32 -92 50 -110 0
-32 -92 -50 -110 0
32 92 60 120 0
-32 92 -60 120 0
32 -92 60 -120 0
-32 -92 -60 -120 0
32 92 53 113 0
-32 92 -53 113 0
32 -92 53 -113 0
-32 -92 -53 -113 0
32 92 50 110 0
-32 92 -50 110 0
32 -92 50 -110 0
-32 -92 -50 -110 0
32 92 43 103 0
-32 92 -43 103 0
32 -92 43 -103 0
-32 -92 -43 -103 0
33 93 50 110 0
-33 93 -50 110 0
33 -93 50 -110 0
-33 -93 -50 -110 0
33 93 39 99 0
-33 93 -39 99 0
33 -93 39 -99 0
-33 -93 -39 -99 0
33 93 45 105 0
-33 93 -45 105 0
33 -93 45 -105 0
-33 -93 -45 -105 0
34 94 51 111 0
-34 94 -51 111 0
34 -94 51 -111 0
-34 -94 -51 -111 0
34 94 44 104 0
-34 94 -44 104 0
34 -94 44 -104 0
-34 -94 -44 -104 0
34 94 49 109 0
-34 94 -49 109 0
34 -94 49 -109 0
-34 -94 -49 -109 0
34 94 53 113 0
-34 94 -53 113 0
34 -94 53 -113 0
-34 -94 -53 -113 0
35 95 41 101 0
-35 95 -41 101 0
35 -95 41 -101 0
-35 -95 -41 -101 0
35 95 41 101 0
-35 95 -41 101 0
35 -95 41 -101 0
-35 -95 -41 -101 0
35 95 47 107 0
-35 95 -47 107 0
35 -95 47 -107 0
-35 -95 -47 -107 0
36 96 53 113 0
-36 96 -53 113 0
36 -96 53 -113 0
-36 -96 -53 -113 0
36 96 37 97 0
-36 96 -37 97 0
36 -96 37 -97 0
-36 -96 -37 -97 0
36 96 55 115 0
-36 96 -55 115 0
36 -96 55 -115 0
-36 -96 -55 -115 0
36 96 59 119 0
-36 96 -59 119 0
36 -96 59 -119 0
-36 -96 -59 -119 0
37 97 54 114 0
-37 97 -54 114 0
37 -97 54 -114 0
-37 -97 -54 -114 0
37 97 43 103 0
-37 97 -43 103 0
37 -97 43 -103 0
-37 -97 -43 -103 0
37 97 54 114 0
-37 97 -54 114 0
37 -97 54 -114 0
-37 -97 -54 -114 0
38 98 48 108 0
-38 98 -48 108 0
38 -98 48 -108 0
-38 -98 -48 -108 0
38 98 56 116 0
-38 98 -56 116 0
38 -98 56 -116 0
-38 -98 -56 -116 0
38 98 44 104 0
-38 98 -44 104 0
38 -98 44 -104 0
-38 -98 -44 -104 0
38 98 49 109 0
-38 98 -49 109 0
38 -98 49 -109 0
-38 -98 -49 -109 0
39 99 47 107 0
-39 99 -47 107 0
39 -99 47 -107 0
-39 -99 -47 -107 0
39 99 53 113 0
-39 99 -53 113 0
39 -99 53 -113 0
-39 -99 -53 -113 0
39 99 49 109 0
-39 99 -49 109 0
39 -99 49 -109 0
-39 -99 -49 -109 0
39 99 42 102 0
-39 99 -42 102 0
39 -99 42 -102 0
-39 -99 -42 -102 0
40 100 59 119 0
-40 100 -59 119 0
40 -100 59 -119 0
-40 -100 -59 -119 0
40 100 57 117 0
-40 100 -57 117 0
40 -100 57 -117 0
-40 -100 -57 -117 0
40 100 41 101 0
-40 100 -41 101 0
40 -100 41 -101 0
-40 -100 -41 -101 0
40 100 45 105 0
-40 100 -45 105 0
40 -100 45 -105 0
-40 -100 -45 -105 0
41 101 52 112 0
-41 101 -52 112 0
41 -101 52 -112 0
-41 -101 -52 -112 0
42 102 48 108 0
-42 102 -48 108 0
42 -102 48 -108 0
-42 -102 -48 -108 0
43 103 44 104 0
-43 103 -44 104 0
43 -103 44 -104 0
-43 -103 -44 -104 0
44 104 45 105 0
-44 104 -45 105 0
44 -104 45 -105 0
-44 -104 -45 -105 0
44 104 46 106 0
-44 104 -46 106 0
44 -104 46 -106 0
-44 -104 -46 -106 0
45 105 58 118 0
-45 105 -58 118 0
45 -105 58 -118 0
-45 -105 -58 -118 0
45 105 54 114 0
-45 105 -54 114 0
45 -105 54 -114 0
-45 -105 -54 -114 0
45 105 48 108 0
-45 105 -48 108 0
45 -105 48 -108 0
-45 -105 -48 -108 0
46 106 53 113 0
-46 106 -53 113 0
46 -106 53 -113 0
-46 -106 -53 -113 0
47 107 55 115 0
-47 107 -55 115 0
47 -107 55 -115 0
-47 -107 -55 -115 0
49 109 60 120 0
-49 109 -60 120 0
49 -109 60 -120 0
-49 -109 -60 -120 0
51 111 54 114 0
-51 111 -54 114 0
51 -111 54 -114 0
-51 -111 -54 -114 0
51 111 56 116 0
-51 111 -56 116 0
51 -111 56 -116 0
-51 -111 -56 -116 0
51 111 52 112 0
-51 111 -52 112 0
51 -111 52 -112 0
-51 -111 -52 -112 0
52 112 59 119 0
-52 112 -59 119 0
52 -112 59 -119 0
-52 -112 -59 -119 0
56 116 60 120 0
-56 116 -60 120 0
56 -116 60 -120 0
-56 -116 -60 -120 0
58 118 59 119 0
-58 118 -59 119 0
58 -118 59 -119 0
-58 -118 -59 -119 0
c p weight 25 0.59353565 0
c p weight -25 0.40646435 0
c p weight 1 0.46873818 0
c p weight -1 0.53126182 0
c p weight 91 0.60797793 0
c p weight -91 0.39202207 0
c p weight 114 0.50839246 0
c p weight -114 0.49160754 0
c p weight 61 0.61437146 0
c p weight -61 0.38562854 0
c p weight 2 1 0
c p weight -2 1 0
c p weight 3 1 0
c p weight -3 1 0
c p weight 4 1 0
c p weight -4 1 0
c p weight 5 1 0
c p weight -5 1 0
c p weight 6 1 0
c p weight -6 1 0
c p weight 7 1 0
c p weight -7 1 0
c p weight 8 1 0
c p weight -8 1 0
c p weight 9 1 0
c p weight -9 1 0
c p weight 10 1 0
c p weight -10 1 0
c p weight 11 1 0
c p weight -11 1 0
c p weight 12 1 0
c p weight -12 1 0
c p weight 13 1 0
c p weight -13 1 0
c p weight 14 1 0
c p weight -14 1 0
c p weight 15 1 0
c p weight -15 1 0
c p weight 16 1 0
c p weight -16 1 0
c p weight 17 1 0
c p weight -17 1 0
c p weight 18 1 0
c p weight -18 1 0
c p weight 19 1 0
c p weight -19 1 0
c p weight 20 1 0
c p weight -20 1 0
c p weight 21 1 0
c p weight -21 1 0
c p weight 22 1 0
c p weight -22 1 0
c p weight 23 1 0
c p weight -23 1 0
c p weight 24 1 0
c p weight -24 1 0
c p weight 26 1 0
c p weight -26 1 0
c p weight 27 1 0
c p weight -27 1 0
c p weight 28 1 0
c p weight -28 1 0
c p weight 29 1 0
c p weight -29 1 0
c p weight 30 1 0
c p weight -30 1 0
c p weight 31 1 0
c p weight -31 1 0
c p weight 32 1 0
c p weight -32 1 0
c p weight 33 1 0
c p weight -33 1 0
c p weight 34 1 0
c p weight -34 1 0
c p weight 35 1 0
c p weight -35 1 0
c p weight 36 1 0
c p weight -36 1 0
c p weight 37 1 0
c p weight -37 1 0
c p weight 38 1 0
c p weight -38 1 0
c p weight 39 1 0
c p weight -39 1 0
c p weight 40 1 0
c p weight -40 1 0
c p weight 41 1 0
c p weight -41 1 0
c p weight 42 1 0
c p weight -42 1 0
c p weight 43 1 0
c p weight -43 1 0
c p weight 44 1 0
c p weight -44 1 0
c p weight 45 1 0
c p weight -45 1 0
c p weight 46 1 0
c p weight -46 1 0
c p weight 47 1 0
c p weight -47 1 0
c p weight 48 1 0
c p weight -48 1 0
c p weight 49 1 0
c p weight -49 1 0
c p weight 50 1 0
c p weight -50 1 0
c p weight 51 1 0
c p weight -51 1 0
c p weight 52 1 0
c p weight -52 1 0
c p weight 53 1 0
c p weight -53 1 0
c p weight 54 1 0
c p weight -54 1 0
c p weight 55 1 0
c p weight -55 1 0
c p weight 56 1 0
c p weight -56 1 0
c p weight 57 1 0
c p weight -57 1 0
c p weight 58 1 0
c p weight -58 1 0
c p weight 59 1 0
c p weight -59 1 0
c p weight 60 1 0
c p weight -60 1 0
c p weight 62 1 0
c p weight -62 1 0
c p weight 63 1 0
c p weight -63 1 0
c p weight 64 1 0
c p weight -64 1 0
c p weight 65 1 0
c p weight -65 1 0
c p weight 66 1 0
c p weight -66 1 0
c p weight 67 1 0
c p weight -67 1 0
c p weight 68 1 0
c p weight -68 1 0
c p weight 69 1 0
c p weight -69 1 0
c p weight 70 1 0
c p weight -70 1 0
c p weight 71 1 0
c p weight -71 1 0
c p weight 72 1 0
c p weight -72 1 0
c p weight 73 1 0
c p weight -73 1 0
c p weight 74 1 0
c p weight -74 1 0
c p weight 75 1 0
c p weight -75 1 0
c p weight 76 1 0
c p weight -76 1 0
c p weight 77 1 0
c p weight -77 1 0
c p weight 78 1 0
c p weight -78 1 0
c p weight 79 1 0
c p weight -79 1 0
c p weight 80 1 0
c p weight -80 1 0
c p weight 81 1 0
c p weight -81 1 0
c p weight 82 1 0
c p weight -82 1 0
c p weight 83 1 0
c p weight -83 1 0
c p weight 84 1 0
c p weight -84 1 0
c p weight 85 1 0
c p weight -85 1 0
c p weight 86 1 0
c p weight -86 1 0
c p weight 87 1 0
c p weight -87 1 0
c p weight 88 1 0
c p weight -88 1 0
c p weight 89 1 0
c p weight -89 1 0
c p weight 90 1 0
c p weight -90 1 0
c p weight 92 1 0
c p weight -92 1 0
c p weight 93 1 0
c p weight -93 1 0
c p weight 94 1 0
c p weight -94 1 0
c p weight 95 1 0
c p weight -95 1 0
c p weight 96 1 0
c p weight -96 1 0
c p weight 97 1 0
c p weight -97 1 0
c p weight 98 1 0
c p weight -98 1 0
c p weight 99 1 0
c p weight -99 1 0
c p weight 100 1 0
c p weight -100 1 0
c p weight 101 1 0
c p weight -101 1 0
c p weight 102 1 0
c p weight -102 1 0
c p weight 103 1 0
c p weight -103 1 0
c p weight 104 1 0
c p weight -104 1 0
c p weight 105 1 0
c p weight -105 1 0
c p weight 106 1 0
c p weight -106 1 0
c p weight 107 1 0
c p weight -107 1 0
c p weight 108 1 0
c p weight -108 1 0
c p weight 109 1 0
c p weight -109 1 0
c p weight 110 1 0
c p weight -110 1 0
c p weight 111 1 0
c p weight -111 1 0
c p weight 112 1 0
c p weight -112 1 0
c p weight 113 1 0
c p weight -113 1 0
c p weight 115 1 0
c p weight -115 1 0
c p weight 116 1 0
c p weight -116 1 0
c p weight 117 1 0
c p weight -117 1 0
c p weight 118 1 0
c p weight -118 1 0
c p weight 119 1 0
c p weight -119 1 0
c p weight 120 1 0
c p weight -120 1 0